sat
(:max-memory                   18.28
 :memory                       18.02
 :nlsat-conflicts              4
 :nlsat-decisions              2
 :nlsat-irrational-assignments 1
 :nlsat-learned-added          4
 :nlsat-propagations           30
 :nlsat-stages                 7
 :num-allocs                   55452
 :rlimit-count                 92418
 :time                         0.08
 :total-time                   0.08)
